set VV := 0 1 2 3 4 5 6 7 8 9 10 11 12 13 14 15 16 17 18 19 20 21 22 ;
set VS := 0 1 2 3 4 5 6 7 8 9 10 11 12 13 14 15 16 17 18 19 20 21 22 23 24 25 26 27 28 29 30 31 32 33 34 35 ;
param cv := 
0 26
1 20
2 24
3 22
4 29
5 27
6 24
7 23
8 23
9 29
10 21
11 29
12 21
13 30
14 25
15 28
16 25
17 30
18 30
19 24
20 22
21 30
22 25
;
param cs := 
0 40
1 33
2 34
3 36
4 32
5 39
6 30
7 40
8 37
9 36
10 33
11 34
12 33
13 33
14 35
15 40
16 30
17 35
18 38
19 31
20 40
21 37
22 32
23 34
24 33
25 34
26 40
27 33
28 37
29 38
30 32
31 38
32 33
33 38
34 40
35 32
;
param bv:	 0 1 2 3 4 5 6 7 8 9 10 11 12 13 14 15 16 17 18 19 20 21 22 := 
		0 0 0 0 0 0 0 0 23 0 0 24 20 0 28 0 29 0 0 0 26 0 0 23 
		1 0 0 0 27 0 0 0 0 0 0 0 22 0 0 0 27 0 0 0 0 30 30 0 
		2 0 0 0 30 25 0 0 0 0 0 0 0 0 0 0 0 21 0 21 28 0 0 0 
		3 0 0 0 0 0 0 0 0 0 0 0 0 0 0 24 0 0 25 0 0 25 0 0 
		4 0 0 0 0 0 0 0 0 0 0 0 0 0 0 0 0 0 0 0 27 0 26 0 
		5 0 0 0 0 0 0 0 0 0 0 0 0 0 0 0 0 0 22 0 0 0 0 0 
		6 0 0 0 0 0 0 0 27 0 26 0 0 23 0 0 0 0 27 0 0 0 0 21 
		7 0 0 0 0 0 0 0 0 0 0 0 0 0 0 0 0 0 0 0 26 0 0 0 
		8 0 0 0 0 0 0 0 0 0 0 23 0 0 0 0 24 0 0 0 0 0 0 0 
		9 0 0 0 0 0 0 0 0 0 0 26 0 24 24 0 0 0 0 0 27 0 21 21 
		10 0 0 0 0 0 0 0 0 0 0 0 24 0 0 0 0 0 0 0 29 0 28 0 
		11 0 0 0 0 0 0 0 0 0 0 0 0 0 0 0 0 0 0 0 0 0 0 0 
		12 0 0 0 0 0 0 0 0 0 0 0 0 0 0 0 0 0 0 0 20 0 0 0 
		13 0 0 0 0 0 0 0 0 0 0 0 0 0 0 0 0 0 0 20 0 0 0 0 
		14 0 0 0 0 0 0 0 0 0 0 0 0 0 0 0 0 0 0 0 0 25 0 0 
		15 0 0 0 0 0 0 0 0 0 0 0 0 0 0 0 0 0 0 0 0 0 0 0 
		16 0 0 0 0 0 0 0 0 0 0 0 0 0 0 0 0 0 21 0 25 0 27 0 
		17 0 0 0 0 0 0 0 0 0 0 0 0 0 0 0 0 0 0 26 0 0 0 0 
		18 0 0 0 0 0 0 0 0 0 0 0 0 0 0 0 0 0 0 0 0 0 0 29 
		19 0 0 0 0 0 0 0 0 0 0 0 0 0 0 0 0 0 0 0 0 0 0 0 
		20 0 0 0 0 0 0 0 0 0 0 0 0 0 0 0 0 0 0 0 0 0 0 0 
		21 0 0 0 0 0 0 0 0 0 0 0 0 0 0 0 0 0 0 0 0 0 0 0 
		22 0 0 0 0 0 0 0 0 0 0 0 0 0 0 0 0 0 0 0 0 0 0 0 
;
param bs:	 0 1 2 3 4 5 6 7 8 9 10 11 12 13 14 15 16 17 18 19 20 21 22 23 24 25 26 27 28 29 30 31 32 33 34 35 := 
		0 0 0 0 0 0 0 0 0 0 0 0 0 0 0 34 0 38 0 31 0 0 0 0 0 0 0 0 0 0 0 0 0 0 0 33 0 
		1 0 0 0 39 0 0 0 0 0 0 0 0 0 0 0 0 0 0 0 0 0 0 0 0 0 0 0 31 0 0 0 0 0 0 0 0 
		2 0 0 0 0 0 0 0 0 0 0 0 0 0 0 0 0 0 0 0 0 0 0 0 36 38 37 0 0 0 0 0 0 0 0 0 0 
		3 0 39 0 0 0 0 0 0 0 0 0 0 0 0 0 0 0 0 0 0 0 0 0 0 0 0 0 0 0 37 36 0 0 36 0 0 
		4 0 0 0 0 0 0 0 0 0 0 0 0 0 0 38 0 0 0 0 0 0 0 0 0 0 0 0 0 0 0 0 0 0 0 0 0 
		5 0 0 0 0 0 0 0 0 0 0 30 0 33 0 0 0 37 0 0 0 0 0 0 0 0 0 0 0 0 0 0 0 0 0 0 0 
		6 0 0 0 0 0 0 0 0 37 0 0 0 0 0 0 0 0 0 0 0 0 0 0 0 0 0 0 0 0 0 0 30 0 0 0 0 
		7 0 0 0 0 0 0 0 0 0 0 0 0 0 39 0 0 0 0 0 0 0 0 0 0 0 0 0 0 0 0 37 0 0 0 0 0 
		8 0 0 0 0 0 0 37 0 0 0 0 0 0 0 0 0 0 0 0 33 0 0 0 0 0 0 0 0 0 33 0 39 39 0 0 0 
		9 0 0 0 0 0 0 0 0 0 0 0 0 0 0 34 0 0 0 0 0 0 0 30 0 0 0 0 0 0 0 0 0 0 0 0 0 
		10 0 0 0 0 0 30 0 0 0 0 0 0 0 0 0 0 0 0 34 0 30 0 0 0 37 0 0 0 0 0 0 0 0 37 0 0 
		11 0 0 0 0 0 0 0 0 0 0 0 0 0 32 0 0 0 0 0 0 0 0 30 0 0 0 0 0 0 0 0 0 0 0 0 0 
		12 0 0 0 0 0 33 0 0 0 0 0 0 0 0 0 0 0 0 0 30 0 0 0 0 0 31 0 0 0 31 0 0 0 0 0 0 
		13 0 0 0 0 0 0 0 39 0 0 0 32 0 0 36 0 0 0 0 0 0 0 0 0 0 33 0 0 0 37 0 0 0 0 0 0 
		14 34 0 0 0 38 0 0 0 0 34 0 0 0 36 0 0 0 0 0 0 0 0 0 0 37 0 0 0 0 33 30 0 0 0 0 0 
		15 0 0 0 0 0 0 0 0 0 0 0 0 0 0 0 0 34 37 0 0 31 0 0 0 31 0 0 0 0 0 0 0 0 31 0 0 
		16 38 0 0 0 0 37 0 0 0 0 0 0 0 0 0 34 0 0 0 0 33 0 0 0 31 34 35 0 0 0 0 0 0 0 0 0 
		17 0 0 0 0 0 0 0 0 0 0 0 0 0 0 0 37 0 0 0 0 0 0 38 0 0 0 0 0 0 0 0 0 0 0 0 0 
		18 31 0 0 0 0 0 0 0 0 0 34 0 0 0 0 0 0 0 0 0 0 0 0 0 0 0 0 0 0 0 0 0 30 0 0 0 
		19 0 0 0 0 0 0 0 0 33 0 0 0 30 0 0 0 0 0 0 0 0 0 0 0 34 0 0 0 0 0 0 34 0 0 0 0 
		20 0 0 0 0 0 0 0 0 0 0 30 0 0 0 0 31 33 0 0 0 0 34 0 0 0 0 0 0 0 0 0 0 0 37 0 0 
		21 0 0 0 0 0 0 0 0 0 0 0 0 0 0 0 0 0 0 0 0 34 0 0 0 0 0 0 0 0 0 0 0 0 32 0 0 
		22 0 0 0 0 0 0 0 0 0 30 0 30 0 0 0 0 0 38 0 0 0 0 0 0 0 0 0 0 0 0 0 0 0 0 0 0 
		23 0 0 36 0 0 0 0 0 0 0 0 0 0 0 0 0 0 0 0 0 0 0 0 0 0 0 0 0 0 0 0 0 0 0 0 35 
		24 0 0 38 0 0 0 0 0 0 0 37 0 0 0 37 31 31 0 0 34 0 0 0 0 0 0 0 0 0 0 0 36 0 0 0 33 
		25 0 0 37 0 0 0 0 0 0 0 0 0 31 33 0 0 34 0 0 0 0 0 0 0 0 0 33 0 0 0 0 0 0 0 0 33 
		26 0 0 0 0 0 0 0 0 0 0 0 0 0 0 0 0 35 0 0 0 0 0 0 0 0 33 0 36 0 0 0 0 0 0 0 0 
		27 0 31 0 0 0 0 0 0 0 0 0 0 0 0 0 0 0 0 0 0 0 0 0 0 0 0 36 0 0 0 0 0 0 39 0 0 
		28 0 0 0 0 0 0 0 0 0 0 0 0 0 0 0 0 0 0 0 0 0 0 0 0 0 0 0 0 0 30 0 0 0 0 0 0 
		29 0 0 0 37 0 0 0 0 33 0 0 0 31 37 33 0 0 0 0 0 0 0 0 0 0 0 0 0 30 0 0 0 0 0 0 38 
		30 0 0 0 36 0 0 0 37 0 0 0 0 0 0 30 0 0 0 0 0 0 0 0 0 0 0 0 0 0 0 0 0 0 0 0 31 
		31 0 0 0 0 0 0 30 0 39 0 0 0 0 0 0 0 0 0 0 34 0 0 0 0 36 0 0 0 0 0 0 0 0 33 0 0 
		32 0 0 0 0 0 0 0 0 39 0 0 0 0 0 0 0 0 0 30 0 0 0 0 0 0 0 0 0 0 0 0 0 0 0 0 0 
		33 0 0 0 36 0 0 0 0 0 0 37 0 0 0 0 31 0 0 0 0 37 32 0 0 0 0 0 39 0 0 0 33 0 0 0 0 
		34 33 0 0 0 0 0 0 0 0 0 0 0 0 0 0 0 0 0 0 0 0 0 0 0 0 0 0 0 0 0 0 0 0 0 0 0 
		35 0 0 0 0 0 0 0 0 0 0 0 0 0 0 0 0 0 0 0 0 0 0 0 35 33 33 0 0 0 38 31 0 0 0 0 0 
;
